Automatic generation
0
Monhkorst-Pack
11  11  11  
0.0 0.0 0.0
