Automatic generation
0
Monhkorst-Pack
3  3  1  
0.0 0.0 0.0
